Maximize
 obj: + x0 + x1 + x2 + x3 + x4 + x5 + x6 + x7 + x8 + x9 + x10 + x11 + x12 + x13 + x14 + x15 + x16 + x17 + x18 + x19 + x20 + x21 + x22 + x23 + x24 + x25 + x26 + x27 + x28 + x29 + x30 + x31 + x32 + x33 + x34 + x35 + x36 + x37 + x38 + x39 + x40 + x41 + x42 + x43 + x44 + x45 + x46 + x47 + x48 + x49 + x50 + x51 + x52 + x53 + x54 + x55 + x56 + x57 + x58 + x59 + x60 + x61 + x62 + x63
Subject To
c0:  +1 x0 + x1 + x2 + x3 + x4 + x8 + x12 + x16 + x32 + x48 <= 1
c1:  +2 x1 + x0 + x2 + x3 + x4 + x5 + x8 + x9 + x12 + x13 + x16 + x17 + x32 + x33 + x48 + x49 <= 2
c2:  +4 x2 + x0 + x1 + x3 + x4 + x5 + x6 + x8 + x9 + x10 + x12 + x13 + x14 + x16 + x17 + x18 + x32 + x33 + x34 + x48 + x49 + x50 <= 4
c3:  +6 x3 + x0 + x1 + x2 + x4 + x5 + x6 + x7 + x8 + x9 + x10 + x11 + x12 + x13 + x14 + x15 + x16 + x17 + x18 + x19 + x32 + x33 + x34 + x35 + x48 + x49 + x50 + x51 <= 6
c4:  +2 x4 + x0 + x1 + x2 + x3 + x5 + x6 + x7 + x8 + x12 + x16 + x20 + x32 + x36 + x48 + x52 <= 2
c5:  +5 x5 + x1 + x2 + x3 + x4 + x6 + x7 + x8 + x9 + x12 + x13 + x17 + x20 + x21 + x33 + x36 + x37 + x49 + x52 + x53 <= 5
c6:  +6 x6 + x2 + x3 + x4 + x5 + x7 + x8 + x9 + x10 + x12 + x13 + x14 + x18 + x20 + x21 + x22 + x34 + x36 + x37 + x38 + x50 + x52 + x53 + x54 <= 6
c7:  +6 x7 + x3 + x4 + x5 + x6 + x8 + x9 + x10 + x11 + x12 + x13 + x14 + x15 + x19 + x20 + x21 + x22 + x23 + x35 + x36 + x37 + x38 + x39 + x51 + x52 + x53 + x54 + x55 <= 6
c8:  +4 x8 + x0 + x1 + x2 + x3 + x4 + x5 + x6 + x7 + x9 + x10 + x11 + x12 + x16 + x20 + x24 + x32 + x36 + x40 + x48 + x52 + x56 <= 4
c9:  +6 x9 + x1 + x2 + x3 + x5 + x6 + x7 + x8 + x10 + x11 + x12 + x13 + x17 + x21 + x24 + x25 + x33 + x37 + x40 + x41 + x49 + x53 + x56 + x57 <= 6
c10:  +5 x10 + x2 + x3 + x6 + x7 + x8 + x9 + x11 + x12 + x13 + x14 + x18 + x22 + x24 + x25 + x26 + x34 + x38 + x40 + x41 + x42 + x50 + x54 + x56 + x57 + x58 <= 5
c11:  +5 x11 + x3 + x7 + x8 + x9 + x10 + x12 + x13 + x14 + x15 + x19 + x23 + x24 + x25 + x26 + x27 + x35 + x39 + x40 + x41 + x42 + x43 + x51 + x55 + x56 + x57 + x58 + x59 <= 5
c12:  +6 x12 + x0 + x1 + x2 + x3 + x4 + x5 + x6 + x7 + x8 + x9 + x10 + x11 + x13 + x14 + x15 + x16 + x20 + x24 + x28 + x32 + x36 + x40 + x44 + x48 + x52 + x56 + x60 <= 6
c13:  +6 x13 + x1 + x2 + x3 + x5 + x6 + x7 + x9 + x10 + x11 + x12 + x14 + x15 + x17 + x21 + x25 + x28 + x29 + x33 + x37 + x41 + x44 + x45 + x49 + x53 + x57 + x60 + x61 <= 6
c14:  +5 x14 + x2 + x3 + x6 + x7 + x10 + x11 + x12 + x13 + x15 + x18 + x22 + x26 + x28 + x29 + x30 + x34 + x38 + x42 + x44 + x45 + x46 + x50 + x54 + x58 + x60 + x61 + x62 <= 5
c15:  +4 x15 + x3 + x7 + x11 + x12 + x13 + x14 + x19 + x23 + x27 + x28 + x29 + x30 + x31 + x35 + x39 + x43 + x44 + x45 + x46 + x47 + x51 + x55 + x59 + x60 + x61 + x62 + x63 <= 4
c16:  +2 x16 + x0 + x1 + x2 + x3 + x4 + x8 + x12 + x17 + x18 + x19 + x20 + x24 + x28 + x32 + x48 <= 2
c17:  +3 x17 + x1 + x2 + x3 + x5 + x9 + x13 + x16 + x18 + x19 + x20 + x21 + x24 + x25 + x28 + x29 + x32 + x33 + x48 + x49 <= 3
c18:  +5 x18 + x2 + x3 + x6 + x10 + x14 + x16 + x17 + x19 + x20 + x21 + x22 + x24 + x25 + x26 + x28 + x29 + x30 + x32 + x33 + x34 + x48 + x49 + x50 <= 5
c19:  +7 x19 + x3 + x7 + x11 + x15 + x16 + x17 + x18 + x20 + x21 + x22 + x23 + x24 + x25 + x26 + x27 + x28 + x29 + x30 + x31 + x32 + x33 + x34 + x35 + x48 + x49 + x50 + x51 <= 7
c20:  +3 x20 + x4 + x5 + x6 + x7 + x8 + x12 + x16 + x17 + x18 + x19 + x21 + x22 + x23 + x24 + x28 + x32 + x36 + x48 + x52 <= 3
c21:  +5 x21 + x5 + x6 + x7 + x9 + x13 + x17 + x18 + x19 + x20 + x22 + x23 + x24 + x25 + x28 + x29 + x33 + x36 + x37 + x49 + x52 + x53 <= 5
c22:  +6 x22 + x6 + x7 + x10 + x14 + x18 + x19 + x20 + x21 + x23 + x24 + x25 + x26 + x28 + x29 + x30 + x34 + x36 + x37 + x38 + x50 + x52 + x53 + x54 <= 6
c23:  +6 x23 + x7 + x11 + x15 + x19 + x20 + x21 + x22 + x24 + x25 + x26 + x27 + x28 + x29 + x30 + x31 + x35 + x36 + x37 + x38 + x39 + x51 + x52 + x53 + x54 + x55 <= 6
c24:  +5 x24 + x8 + x9 + x10 + x11 + x12 + x16 + x17 + x18 + x19 + x20 + x21 + x22 + x23 + x25 + x26 + x27 + x28 + x32 + x36 + x40 + x48 + x52 + x56 <= 5
c25:  +6 x25 + x9 + x10 + x11 + x13 + x17 + x18 + x19 + x21 + x22 + x23 + x24 + x26 + x27 + x28 + x29 + x33 + x37 + x40 + x41 + x49 + x53 + x56 + x57 <= 6
c26:  +5 x26 + x10 + x11 + x14 + x18 + x19 + x22 + x23 + x24 + x25 + x27 + x28 + x29 + x30 + x34 + x38 + x40 + x41 + x42 + x50 + x54 + x56 + x57 + x58 <= 5
c27:  +5 x27 + x11 + x15 + x19 + x23 + x24 + x25 + x26 + x28 + x29 + x30 + x31 + x35 + x39 + x40 + x41 + x42 + x43 + x51 + x55 + x56 + x57 + x58 + x59 <= 5
c28:  +7 x28 + x12 + x13 + x14 + x15 + x16 + x17 + x18 + x19 + x20 + x21 + x22 + x23 + x24 + x25 + x26 + x27 + x29 + x30 + x31 + x32 + x36 + x40 + x44 + x48 + x52 + x56 + x60 <= 7
c29:  +6 x29 + x13 + x14 + x15 + x17 + x18 + x19 + x21 + x22 + x23 + x25 + x26 + x27 + x28 + x30 + x31 + x33 + x37 + x41 + x44 + x45 + x49 + x53 + x57 + x60 + x61 <= 6
c30:  +5 x30 + x14 + x15 + x18 + x19 + x22 + x23 + x26 + x27 + x28 + x29 + x31 + x34 + x38 + x42 + x44 + x45 + x46 + x50 + x54 + x58 + x60 + x61 + x62 <= 5
c31:  +3 x31 + x15 + x19 + x23 + x27 + x28 + x29 + x30 + x35 + x39 + x43 + x44 + x45 + x46 + x47 + x51 + x55 + x59 + x60 + x61 + x62 + x63 <= 3
c32:  +3 x32 + x0 + x1 + x2 + x3 + x4 + x8 + x12 + x16 + x17 + x18 + x19 + x20 + x24 + x28 + x33 + x34 + x35 + x36 + x40 + x44 + x48 <= 3
c33:  +4 x33 + x1 + x2 + x3 + x5 + x9 + x13 + x17 + x18 + x19 + x21 + x25 + x29 + x32 + x34 + x35 + x36 + x37 + x40 + x41 + x44 + x45 + x48 + x49 <= 4
c34:  +6 x34 + x2 + x3 + x6 + x10 + x14 + x18 + x19 + x22 + x26 + x30 + x32 + x33 + x35 + x36 + x37 + x38 + x40 + x41 + x42 + x44 + x45 + x46 + x48 + x49 + x50 <= 6
c35:  +7 x35 + x3 + x7 + x11 + x15 + x19 + x23 + x27 + x31 + x32 + x33 + x34 + x36 + x37 + x38 + x39 + x40 + x41 + x42 + x43 + x44 + x45 + x46 + x47 + x48 + x49 + x50 + x51 <= 7
c36:  +4 x36 + x4 + x5 + x6 + x7 + x8 + x12 + x20 + x21 + x22 + x23 + x24 + x28 + x32 + x33 + x34 + x35 + x37 + x38 + x39 + x40 + x44 + x48 + x52 <= 4
c37:  +5 x37 + x5 + x6 + x7 + x9 + x13 + x21 + x22 + x23 + x25 + x29 + x33 + x34 + x35 + x36 + x38 + x39 + x40 + x41 + x44 + x45 + x49 + x52 + x53 <= 5
c38:  +6 x38 + x6 + x7 + x10 + x14 + x22 + x23 + x26 + x30 + x34 + x35 + x36 + x37 + x39 + x40 + x41 + x42 + x44 + x45 + x46 + x50 + x52 + x53 + x54 <= 6
c39:  +6 x39 + x7 + x11 + x15 + x23 + x27 + x31 + x35 + x36 + x37 + x38 + x40 + x41 + x42 + x43 + x44 + x45 + x46 + x47 + x51 + x52 + x53 + x54 + x55 <= 6
c40:  +6 x40 + x8 + x9 + x10 + x11 + x12 + x24 + x25 + x26 + x27 + x28 + x32 + x33 + x34 + x35 + x36 + x37 + x38 + x39 + x41 + x42 + x43 + x44 + x48 + x52 + x56 <= 6
c41:  +6 x41 + x9 + x10 + x11 + x13 + x25 + x26 + x27 + x29 + x33 + x34 + x35 + x37 + x38 + x39 + x40 + x42 + x43 + x44 + x45 + x49 + x53 + x56 + x57 <= 6
c42:  +5 x42 + x10 + x11 + x14 + x26 + x27 + x30 + x34 + x35 + x38 + x39 + x40 + x41 + x43 + x44 + x45 + x46 + x50 + x54 + x56 + x57 + x58 <= 5
c43:  +4 x43 + x11 + x15 + x27 + x31 + x35 + x39 + x40 + x41 + x42 + x44 + x45 + x46 + x47 + x51 + x55 + x56 + x57 + x58 + x59 <= 4
c44:  +7 x44 + x12 + x13 + x14 + x15 + x28 + x29 + x30 + x31 + x32 + x33 + x34 + x35 + x36 + x37 + x38 + x39 + x40 + x41 + x42 + x43 + x45 + x46 + x47 + x48 + x52 + x56 + x60 <= 7
c45:  +6 x45 + x13 + x14 + x15 + x29 + x30 + x31 + x33 + x34 + x35 + x37 + x38 + x39 + x41 + x42 + x43 + x44 + x46 + x47 + x49 + x53 + x57 + x60 + x61 <= 6
c46:  +4 x46 + x14 + x15 + x30 + x31 + x34 + x35 + x38 + x39 + x42 + x43 + x44 + x45 + x47 + x50 + x54 + x58 + x60 + x61 + x62 <= 4
c47:  +2 x47 + x15 + x31 + x35 + x39 + x43 + x44 + x45 + x46 + x51 + x55 + x59 + x60 + x61 + x62 + x63 <= 2
c48:  +4 x48 + x0 + x1 + x2 + x3 + x4 + x8 + x12 + x16 + x17 + x18 + x19 + x20 + x24 + x28 + x32 + x33 + x34 + x35 + x36 + x40 + x44 + x49 + x50 + x51 + x52 + x56 + x60 <= 4
c49:  +5 x49 + x1 + x2 + x3 + x5 + x9 + x13 + x17 + x18 + x19 + x21 + x25 + x29 + x33 + x34 + x35 + x37 + x41 + x45 + x48 + x50 + x51 + x52 + x53 + x56 + x57 + x60 + x61 <= 5
c50:  +6 x50 + x2 + x3 + x6 + x10 + x14 + x18 + x19 + x22 + x26 + x30 + x34 + x35 + x38 + x42 + x46 + x48 + x49 + x51 + x52 + x53 + x54 + x56 + x57 + x58 + x60 + x61 + x62 <= 6
c51:  +7 x51 + x3 + x7 + x11 + x15 + x19 + x23 + x27 + x31 + x35 + x39 + x43 + x47 + x48 + x49 + x50 + x52 + x53 + x54 + x55 + x56 + x57 + x58 + x59 + x60 + x61 + x62 + x63 <= 7
c52:  +5 x52 + x4 + x5 + x6 + x7 + x8 + x12 + x20 + x21 + x22 + x23 + x24 + x28 + x36 + x37 + x38 + x39 + x40 + x44 + x48 + x49 + x50 + x51 + x53 + x54 + x55 + x56 + x60 <= 5
c53:  +5 x53 + x5 + x6 + x7 + x9 + x13 + x21 + x22 + x23 + x25 + x29 + x37 + x38 + x39 + x41 + x45 + x49 + x50 + x51 + x52 + x54 + x55 + x56 + x57 + x60 + x61 <= 5
c54:  +6 x54 + x6 + x7 + x10 + x14 + x22 + x23 + x26 + x30 + x38 + x39 + x42 + x46 + x50 + x51 + x52 + x53 + x55 + x56 + x57 + x58 + x60 + x61 + x62 <= 6
c55:  +5 x55 + x7 + x11 + x15 + x23 + x27 + x31 + x39 + x43 + x47 + x51 + x52 + x53 + x54 + x56 + x57 + x58 + x59 + x60 + x61 + x62 + x63 <= 5
c56:  +6 x56 + x8 + x9 + x10 + x11 + x12 + x24 + x25 + x26 + x27 + x28 + x40 + x41 + x42 + x43 + x44 + x48 + x49 + x50 + x51 + x52 + x53 + x54 + x55 + x57 + x58 + x59 + x60 <= 6
c57:  +6 x57 + x9 + x10 + x11 + x13 + x25 + x26 + x27 + x29 + x41 + x42 + x43 + x45 + x49 + x50 + x51 + x53 + x54 + x55 + x56 + x58 + x59 + x60 + x61 <= 6
c58:  +5 x58 + x10 + x11 + x14 + x26 + x27 + x30 + x42 + x43 + x46 + x50 + x51 + x54 + x55 + x56 + x57 + x59 + x60 + x61 + x62 <= 5
c59:  +3 x59 + x11 + x15 + x27 + x31 + x43 + x47 + x51 + x55 + x56 + x57 + x58 + x60 + x61 + x62 + x63 <= 3
c60:  +7 x60 + x12 + x13 + x14 + x15 + x28 + x29 + x30 + x31 + x44 + x45 + x46 + x47 + x48 + x49 + x50 + x51 + x52 + x53 + x54 + x55 + x56 + x57 + x58 + x59 + x61 + x62 + x63 <= 7
c61:  +5 x61 + x13 + x14 + x15 + x29 + x30 + x31 + x45 + x46 + x47 + x49 + x50 + x51 + x53 + x54 + x55 + x57 + x58 + x59 + x60 + x62 + x63 <= 5
c62:  +3 x62 + x14 + x15 + x30 + x31 + x46 + x47 + x50 + x51 + x54 + x55 + x58 + x59 + x60 + x61 + x63 <= 3
c63:  +1 x63 + x15 + x31 + x47 + x51 + x55 + x59 + x60 + x61 + x62 <= 1


c64:  + x0 + x1 + x2 + x3 + x4 + x8 + x12 + x16 + x32 + x48 <= 1
c65:  + x4 + x5 + x6 + x7 + x20 + x36 + x52 <= 1
c66:  + x11 + x27 + x43 + x51 + x55 + x56 + x57 + x58 + x59 <= 1
c67:  + x1 + x5 + x9 + x13 + x17 + x33 + x49 <= 1
c68:  + x14 + x30 + x46 + x50 + x54 + x58 + x60 + x61 + x62 <= 1
c69:  + x15 + x31 + x35 + x39 + x43 + x44 + x45 + x46 + x47 <= 1
c70:  + x16 + x17 + x18 + x19 + x20 + x24 + x28 <= 1
c71:  + x10 + x26 + x34 + x38 + x40 + x41 + x42 <= 1
c72:  + x21 + x22 + x23 + x25 + x29 + x37 + x53 <= 1
c73:  + x3 + x7 + x10 + x11 + x13 + x14 <= 1
c74:  + x3 + x19 + x34 + x35 + x49 + x50 <= 1
c75:  + x12 + x28 + x40 + x44 + x52 + x56 <= 1
c76:  + x7 + x15 + x19 + x23 + x51 <= 1
c77:  + x15 + x27 + x28 + x29 + x30 <= 1
c78:  + x38 + x39 + x52 + x53 + x54 <= 1
c79:  + x13 + x29 + x45 + x57 + x60 <= 1
c80:  + x33 + x34 + x36 + x44 + x48 <= 1
c81:  + x2 + x6 + x9 + x10 <= 1
c82:  + x6 + x14 + x18 + x22 + x34 <= 1
c83:  + x8 + x9 + x11 + x24 + x40 <= 1
c84:  + x11 + x19 + x25 + x26 <= 1
c85:  + x33 + x35 + x37 + x41 <= 1
c86:  + x41 + x45 + x49 + x53 <= 1
c87:  + x6 + x13 + x21 <= 1
c88:  + x23 + x24 + x26 + x27 <= 1
c89:  + x11 + x35 + x42 <= 1
c90:  + x48 + x49 + x51 + x52 + x60 <= 1
c91:  + x9 + x25 + x41 + x56 <= 1
c92:  + x6 + x37 + x38 <= 1
c93:  + x10 + x50 + x56 <= 1
c94:  + x11 + x12 + x15 <= 1
c95:  + x2 + x18 + x33 <= 1
c96:  + x21 + x24 + x36 <= 1
c97:  + x22 + x26 + x28 <= 1
c98:  + x31 + x55 + x60 + x63 <= 1
c99:  + x14 + x42 + x44 <= 1
c100:  + x15 + x59 + x61 + x63 <= 1
c101:  + x7 + x9 + x12 <= 1
c102:  + x23 + x35 + x36 + x38 <= 1
c103:  + x32 + x33 + x40 <= 1
c104:  + x36 + x37 + x39 + x40 <= 1
c105:  + x6 + x50 + x53 <= 1
c106:  + x18 + x26 + x29 <= 1
c107:  + x18 + x21 + x49 <= 1
c108:  + x7 + x22 + x38 <= 1
c109:  + x10 + x18 + x25 <= 1
c110:  + x30 + x34 + x45 <= 1
c111:  + x42 + x54 + x56 <= 1
c112:  + x47 + x51 + x62 + x63 <= 1
c113:  + x26 + x50 + x57 <= 1
c114:  + x13 + x37 + x44 <= 1
c115:  + x13 + x25 + x28 <= 1
c116:  + x19 + x27 + x31 <= 1
c117:  + x28 + x32 + x36 <= 1
c118:  + x18 + x48 + x50 <= 1
c119:  + x13 + x53 + x61 <= 1
c120:  + x7 + x39 + x55 <= 1
c121:  + x10 + x12 + x24 <= 1
c122:  + x19 + x21 + x33 <= 1
c123:  + x22 + x24 + x52 <= 1
c124:  + x23 + x28 + x31 <= 1
c125:  + x29 + x31 + x61 <= 1
c126:  + x19 + x22 + x30 <= 1
c127:  + x27 + x39 + x42 <= 1
c128:  + x10 + x22 + x54 <= 1
c129:  + x25 + x49 + x57 <= 1
c130:  + x3 + x5 <= 1
c131:  + x5 + x8 <= 1
c132:  + x14 + x38 + x45 <= 1
c133:  + x17 + x32 <= 1
c134:  + x11 + x39 + x41 <= 1
c135:  + x24 + x48 + x56 <= 1
c136:  + x3 + x51 <= 1
c137:  + x9 + x53 + x57 <= 1
c138:  + x23 + x52 + x55 <= 1
c139:  + x47 + x59 + x60 <= 1
c140:  + x2 + x5 <= 1
c141:  + x6 + x8 <= 1
c142:  + x5 + x12 <= 1
c143:  + x8 + x20 <= 1
c144:  + x5 + x21 <= 1
c145:  + x29 + x41 + x44 <= 1
c146:  + x30 + x38 + x44 <= 1
c147:  + x18 + x32 <= 1
c148:  + x5 + x37 <= 1
c149:  + x30 + x42 <= 1
c150:  + x31 + x51 <= 1
c151:  + x6 + x54 <= 1
c152:  + x2 + x13 <= 1
c153:  + x3 + x6 <= 1
c154:  + x7 + x8 <= 1
c155:  + x6 + x12 <= 1
c156:  + x2 + x14 <= 1
c157:  + x15 + x55 + x62 <= 1
c158:  + x2 + x17 <= 1
c159:  + x12 + x20 <= 1
c160:  + x7 + x21 <= 1
c161:  + x19 + x32 <= 1
c162:  + x27 + x35 + x40 <= 1
c163:  + x7 + x37 <= 1
c164:  + x42 + x43 <= 1
c165:  + x17 + x48 <= 1
c166:  + x2 + x50 <= 1
c167:  + x35 + x51 <= 1
c168:  + x53 + x56 + x60 <= 1
c169:  + x7 + x54 <= 1
c170:  + x47 + x55 + x61 <= 1
c171:  + x3 + x9 <= 1
c172:  + x12 + x14 <= 1
c173:  + x20 + x21 <= 1
c174:  + x11 + x23 <= 1
c175:  + x17 + x25 <= 1
c176:  + x14 + x26 <= 1
c177:  + x14 + x29 <= 1
c178:  + x20 + x32 <= 1
c179:  + x9 + x37 <= 1
c180:  + x42 + x45 <= 1
c181:  + x19 + x48 <= 1
c182:  + x2 + x49 <= 1
c183:  + x22 + x50 <= 1
c184:  + x39 + x51 <= 1
c185:  + x23 + x54 <= 1
c186:  + x10 + x57 <= 1
c187:  + x3 + x15 <= 1
c188:  + x8 + x10 <= 1
c189:  + x9 + x21 <= 1
c190:  + x24 + x25 <= 1
c191:  + x26 + x30 <= 1
c192:  + x14 + x28 <= 1
c193:  + x17 + x29 <= 1
c194:  + x24 + x32 <= 1
c195:  + x3 + x33 <= 1
c196:  + x2 + x34 <= 1
c197:  + x34 + x37 <= 1
c198:  + x13 + x41 <= 1
c199:  + x42 + x46 <= 1
c200:  + x20 + x48 <= 1
c201:  + x29 + x49 <= 1
c202:  + x38 + x50 <= 1
c203:  + x50 + x51 <= 1
c204:  + x8 + x52 <= 1
c205:  + x5 + x53 <= 1
c206:  + x26 + x54 <= 1
c207:  + x41 + x57 <= 1
c208:  + x12 + x60 <= 1
c209:  + x45 + x61 <= 1
c210:  + x13 + x15 <= 1
c211:  + x17 + x21 <= 1
c212:  + x20 + x23 <= 1
c213:  + x25 + x27 <= 1
c214:  + x21 + x28 <= 1
c215:  + x18 + x30 <= 1
c216:  + x31 + x59 + x62 <= 1
c217:  + x32 + x34 <= 1
c218:  + x25 + x33 <= 1
c219:  + x7 + x35 <= 1
c220:  + x8 + x36 <= 1
c221:  + x37 + x45 <= 1
c222:  + x25 + x40 <= 1
c223:  + x42 + x50 <= 1
c224:  + x28 + x48 <= 1
c225:  + x37 + x49 <= 1
c226:  + x51 + x53 <= 1
c227:  + x21 + x52 <= 1
c228:  + x51 + x54 <= 1
c229:  + x8 + x56 <= 1
c230:  + x42 + x57 <= 1
c231:  + x10 + x58 <= 1
c232:  + x15 + x60 <= 1
c233:  + x49 + x61 <= 1
c234:  + x3 + x17 <= 1
c235:  + x12 + x13 <= 1
c236:  + x20 + x22 <= 1
c237:  + x23 + x30 <= 1
c238:  + x26 + x56 <= 1
c239:  + x19 + x29 <= 1
c240:  + x32 + x35 <= 1
c241:  + x29 + x33 <= 1
c242:  + x12 + x36 <= 1
c243:  + x40 + x43 <= 1
c244:  + x27 + x41 <= 1
c245:  + x32 + x44 <= 1
c246:  + x34 + x46 <= 1
c247:  + x35 + x48 <= 1
c248:  + x37 + x52 <= 1
c249:  + x7 + x53 <= 1
c250:  + x54 + x55 <= 1
c251:  + x54 + x57 <= 1
c252:  + x26 + x58 <= 1
c253:  + x28 + x60 <= 1
c254:  + x51 + x61 <= 1
c255:  + x3 + x18 <= 1
c256:  + x14 + x15 <= 1
c257:  + x22 + x36 <= 1
c258:  + x23 + x39 <= 1
c259:  + x30 + x31 <= 1
c260:  + x33 + x45 <= 1
c261:  + x38 + x46 <= 1
c262:  + x40 + x48 <= 1
c263:  + x41 + x43 <= 1
c264:  + x42 + x58 <= 1
c265:  + x44 + x60 <= 1
c266:  + x49 + x56 <= 1
c267:  + x50 + x52 <= 1
c268:  + x53 + x55 <= 1
c269:  + x57 + x61 <= 1



Binary
x0
x1
x2
x3
x4
x5
x6
x7
x8
x9
x10
x11
x12
x13
x14
x15
x16
x17
x18
x19
x20
x21
x22
x23
x24
x25
x26
x27
x28
x29
x30
x31
x32
x33
x34
x35
x36
x37
x38
x39
x40
x41
x42
x43
x44
x45
x46
x47
x48
x49
x50
x51
x52
x53
x54
x55
x56
x57
x58
x59
x60
x61
x62
x63


End